NAME : n80w160.003.690.tour
COMMENT : Length = 690
COMMENT : Found by LKH [Keld Helsgaun] Tue Nov  7 19:40:06 2017
TYPE : TOUR
DIMENSION : 81
TOUR_SECTION
1
41
53
62
63
68
49
52
66
38
6
44
3
64
35
4
79
45
16
13
80
30
23
42
51
59
25
61
24
15
26
74
27
69
76
9
40
73
57
17
36
21
14
5
19
50
31
54
32
67
47
60
75
34
56
72
58
20
71
48
70
29
2
10
8
7
33
77
37
12
43
55
46
28
18
39
22
65
78
81
11
-1
EOF
